c ind 1 21 22 23 24 25 26 27 28 29 30 31 32 33 34 35 36 37 38 39 40 41 42 43 44 45 0
p cnf 90 165
-5 -7 0
6 -7 0
5 -6 7 0
-5 -8 0
-6 -8 0
5 6 8 0
-5 -10 0
-6 -10 0
9 -10 0
5 6 -9 10 0
-5 -11 0
-6 -11 0
-9 -11 0
5 6 9 11 0
-5 -13 0
-6 -13 0
-9 -13 0
12 -13 0
5 6 9 -12 13 0
-5 -14 0
-6 -14 0
-9 -14 0
-12 -14 0
5 6 9 12 14 0
-5 -16 0
-6 -16 0
-9 -16 0
-12 -16 0
15 -16 0
5 6 9 12 -15 16 0
-5 -17 0
-6 -17 0
-9 -17 0
-12 -17 0
-15 -17 0
5 6 9 12 15 17 0
-5 -19 0
-6 -19 0
-9 -19 0
-12 -19 0
-15 -19 0
18 -19 0
5 6 9 12 15 -18 19 0
20 0
21 -46 0
-21 46 0
-1 -46 -47 0
1 46 -47 0
-1 46 47 0
1 -46 47 0
-47 0
27 -48 0
-27 48 0
1 -50 0
48 -50 0
-1 -48 50 0
-2 -50 -51 0
2 50 -51 0
-2 50 51 0
2 -50 51 0
-51 0
33 -52 0
-33 52 0
2 -54 0
52 -54 0
-2 -52 54 0
-3 -54 -55 0
3 54 -55 0
-3 54 55 0
3 -54 55 0
-55 0
39 -56 0
-39 56 0
3 -58 0
56 -58 0
-3 -56 58 0
-4 -58 -59 0
4 58 -59 0
-4 58 59 0
4 -58 59 0
-59 0
45 -60 0
-45 60 0
4 -62 0
60 -62 0
-4 -60 62 0
-5 -62 -63 0
5 62 -63 0
-5 62 63 0
5 -62 63 0
-63 0
-27 64 0
27 -64 0
-27 -65 0
27 -65 0
27 66 0
-65 66 0
-27 65 -66 0
-6 -66 -67 0
6 66 -67 0
-6 66 67 0
6 -66 67 0
-67 0
-33 68 0
33 -68 0
-33 -69 0
33 -69 0
33 70 0
-69 70 0
-33 69 -70 0
-9 -70 -71 0
9 70 -71 0
-9 70 71 0
9 -70 71 0
-71 0
-21 72 0
21 -72 0
-21 -73 0
21 -73 0
21 74 0
-73 74 0
-21 73 -74 0
-12 -74 -75 0
12 74 -75 0
-12 74 75 0
12 -74 75 0
-75 0
-39 76 0
39 -76 0
-39 -77 0
39 -77 0
39 78 0
-77 78 0
-39 77 -78 0
-15 -78 -79 0
15 78 -79 0
-15 78 79 0
15 -78 79 0
-79 0
-45 80 0
45 -80 0
-45 -81 0
45 -81 0
45 82 0
-81 82 0
-45 81 -82 0
-18 -82 -83 0
18 82 -83 0
-18 82 83 0
18 -82 83 0
-83 0
7 10 13 16 19 0
-84 -86 -88 0
84 86 -88 0
-84 86 88 0
84 -86 88 0
-85 -87 -89 0
85 87 -89 0
-85 87 89 0
85 -87 89 0
-88 -90 0
-89 -90 0
88 89 90 0
-20 90 0
20 -90 0
c __CPROVER_malloc_is_new_array#1 FALSE
c check::$tmp::tmp_if_expr$1!0@1#1 49
c goto_symex::\guard#1 1
c check::$tmp::tmp_if_expr$1!0@1#2 48
c check::$tmp::tmp_if_expr$1!0@1#3 49
c check::$tmp::tmp_if_expr$1!0@1#4 FALSE
c check::$tmp::tmp_if_expr$1!0@1#5 2
c check::$tmp::tmp_if_expr$2!0@1#1 53
c check::$tmp::tmp_if_expr$2!0@1#2 52
c check::$tmp::tmp_if_expr$2!0@1#3 53
c check::$tmp::tmp_if_expr$2!0@1#4 FALSE
c check::$tmp::tmp_if_expr$2!0@1#5 3
c check::$tmp::tmp_if_expr$3!0@1#1 57
c check::$tmp::tmp_if_expr$3!0@1#2 56
c check::$tmp::tmp_if_expr$3!0@1#3 57
c check::$tmp::tmp_if_expr$3!0@1#4 FALSE
c check::$tmp::tmp_if_expr$3!0@1#5 4
c check::$tmp::tmp_if_expr$4!0@1#1 61
c check::$tmp::tmp_if_expr$4!0@1#2 60
c check::$tmp::tmp_if_expr$4!0@1#3 61
c check::$tmp::tmp_if_expr$4!0@1#4 FALSE
c check::$tmp::tmp_if_expr$4!0@1#5 5
c goto_symex::\guard#2 6
c goto_symex::\guard#3 9
c goto_symex::\guard#4 12
c goto_symex::\guard#5 15
c goto_symex::\guard#6 18
c __CPROVER_thread_id!0#1 FALSE FALSE FALSE FALSE FALSE FALSE FALSE FALSE FALSE FALSE FALSE FALSE FALSE FALSE FALSE FALSE FALSE FALSE FALSE FALSE FALSE FALSE FALSE FALSE FALSE FALSE FALSE FALSE FALSE FALSE FALSE FALSE FALSE FALSE FALSE FALSE FALSE FALSE FALSE FALSE FALSE FALSE FALSE FALSE FALSE FALSE FALSE FALSE FALSE FALSE FALSE FALSE FALSE FALSE FALSE FALSE FALSE FALSE FALSE FALSE FALSE FALSE FALSE FALSE
c __CPROVER_rounding_mode!0#1 FALSE FALSE FALSE FALSE FALSE FALSE FALSE FALSE FALSE FALSE FALSE FALSE FALSE FALSE FALSE FALSE FALSE FALSE FALSE FALSE FALSE FALSE FALSE FALSE FALSE FALSE FALSE FALSE FALSE FALSE FALSE FALSE
c check::1::x!0@1#1 21 22 23 24 25 26 27 28 29 30 31 32 33 34 35 36 37 38 39 40 41 42 43 44 45
c __CPROVER_pipe_count#1 FALSE FALSE FALSE FALSE FALSE FALSE FALSE FALSE FALSE FALSE FALSE FALSE FALSE FALSE FALSE FALSE FALSE FALSE FALSE FALSE FALSE FALSE FALSE FALSE FALSE FALSE FALSE FALSE FALSE FALSE FALSE FALSE
c __CPROVER_deallocated#1 FALSE FALSE FALSE FALSE FALSE FALSE FALSE FALSE FALSE FALSE FALSE FALSE FALSE FALSE FALSE FALSE FALSE FALSE FALSE FALSE FALSE FALSE FALSE FALSE FALSE FALSE FALSE FALSE FALSE FALSE FALSE FALSE FALSE FALSE FALSE FALSE FALSE FALSE FALSE FALSE FALSE FALSE FALSE FALSE FALSE FALSE FALSE FALSE FALSE FALSE FALSE FALSE FALSE FALSE FALSE FALSE FALSE FALSE FALSE FALSE FALSE FALSE FALSE FALSE
c __CPROVER_dead_object#1 FALSE FALSE FALSE FALSE FALSE FALSE FALSE FALSE FALSE FALSE FALSE FALSE FALSE FALSE FALSE FALSE FALSE FALSE FALSE FALSE FALSE FALSE FALSE FALSE FALSE FALSE FALSE FALSE FALSE FALSE FALSE FALSE FALSE FALSE FALSE FALSE FALSE FALSE FALSE FALSE FALSE FALSE FALSE FALSE FALSE FALSE FALSE FALSE FALSE FALSE FALSE FALSE FALSE FALSE FALSE FALSE FALSE FALSE FALSE FALSE FALSE FALSE FALSE FALSE
c __CPROVER_next_thread_id#1 FALSE FALSE FALSE FALSE FALSE FALSE FALSE FALSE FALSE FALSE FALSE FALSE FALSE FALSE FALSE FALSE FALSE FALSE FALSE FALSE FALSE FALSE FALSE FALSE FALSE FALSE FALSE FALSE FALSE FALSE FALSE FALSE FALSE FALSE FALSE FALSE FALSE FALSE FALSE FALSE FALSE FALSE FALSE FALSE FALSE FALSE FALSE FALSE FALSE FALSE FALSE FALSE FALSE FALSE FALSE FALSE FALSE FALSE FALSE FALSE FALSE FALSE FALSE FALSE
c __CPROVER_malloc_object#1 FALSE FALSE FALSE FALSE FALSE FALSE FALSE FALSE FALSE FALSE FALSE FALSE FALSE FALSE FALSE FALSE FALSE FALSE FALSE FALSE FALSE FALSE FALSE FALSE FALSE FALSE FALSE FALSE FALSE FALSE FALSE FALSE FALSE FALSE FALSE FALSE FALSE FALSE FALSE FALSE FALSE FALSE FALSE FALSE FALSE FALSE FALSE FALSE FALSE FALSE FALSE FALSE FALSE FALSE FALSE FALSE FALSE FALSE FALSE FALSE FALSE FALSE FALSE FALSE
c __CPROVER_malloc_size#1 FALSE FALSE FALSE FALSE FALSE FALSE FALSE FALSE FALSE FALSE FALSE FALSE FALSE FALSE FALSE FALSE FALSE FALSE FALSE FALSE FALSE FALSE FALSE FALSE FALSE FALSE FALSE FALSE FALSE FALSE FALSE FALSE FALSE FALSE FALSE FALSE FALSE FALSE FALSE FALSE FALSE FALSE FALSE FALSE FALSE FALSE FALSE FALSE FALSE FALSE FALSE FALSE FALSE FALSE FALSE FALSE FALSE FALSE FALSE FALSE FALSE FALSE FALSE FALSE
c __CPROVER_memory_leak#1 FALSE FALSE FALSE FALSE FALSE FALSE FALSE FALSE FALSE FALSE FALSE FALSE FALSE FALSE FALSE FALSE FALSE FALSE FALSE FALSE FALSE FALSE FALSE FALSE FALSE FALSE FALSE FALSE FALSE FALSE FALSE FALSE FALSE FALSE FALSE FALSE FALSE FALSE FALSE FALSE FALSE FALSE FALSE FALSE FALSE FALSE FALSE FALSE FALSE FALSE FALSE FALSE FALSE FALSE FALSE FALSE FALSE FALSE FALSE FALSE FALSE FALSE FALSE FALSE
